1 of 1 MIP starts provided solutions.
MIP start 'm1' defined initial solution with objective 102101.0000.
Tried aggregator 1 time.
MIP Presolve eliminated 0 rows and 1 columns.
Reduced MIP has 90100 rows, 60300 columns, and 18210000 nonzeros.
Reduced MIP has 30000 binaries, 0 generals, 0 SOSs, and 0 indicators.
Presolve time = 9.58 sec. (4732.59 ticks)
Probing time = 0.31 sec. (176.39 ticks)
Tried aggregator 1 time.
Reduced MIP has 90100 rows, 60300 columns, and 18210000 nonzeros.
Reduced MIP has 30000 binaries, 0 generals, 0 SOSs, and 0 indicators.
Presolve time = 11.89 sec. (5507.73 ticks)
Probing time = 0.31 sec. (176.37 ticks)
Clique table members: 100.
MIP emphasis: balance optimality and feasibility.
MIP search method: dynamic search.
Parallel mode: none, using 1 thread.
Root relaxation solution time = 24.07 sec. (17354.37 ticks)

        Nodes                                         Cuts/
   Node  Left     Objective  IInf  Best Integer    Best Bound    ItCnt     Gap

*     0+    0                       102101.0000   2.30396e+07    18025     --- 
      0     0   102109.0000    10   102101.0000   102109.0000    18025    0.01%

Root node processing (before b&c):
  Real time             =   70.27 sec. (57874.45 ticks)
Sequential b&c:
  Real time             =    0.00 sec. (0.00 ticks)
                          ------------
Total (root+branch&cut) =   70.27 sec. (57874.45 ticks)
